p edge 50 121
e 0 2
e 0 36
e 0 49
e 1 25
e 1 34
e 1 49
e 2 5
e 2 6
e 2 29
e 2 35
e 3 4
e 3 5
e 3 17
e 3 46
e 3 47
e 4 8
e 4 11
e 4 13
e 4 18
e 4 22
e 4 27
e 4 31
e 4 39
e 4 47
e 5 13
e 5 24
e 5 42
e 6 14
e 6 30
e 6 34
e 6 49
e 7 16
e 7 18
e 7 26
e 7 42
e 7 45
e 8 30
e 8 33
e 8 37
e 10 24
e 10 25
e 10 31
e 10 37
e 10 40
e 11 18
e 11 23
e 11 28
e 11 30
e 11 37
e 11 47
e 12 18
e 12 30
e 12 43
e 12 48
e 13 15
e 13 21
e 13 24
e 13 45
e 14 28
e 14 48
e 15 30
e 15 45
e 16 17
e 16 26
e 16 27
e 16 35
e 16 42
e 17 47
e 18 19
e 18 26
e 18 33
e 18 35
e 18 37
e 18 38
e 18 40
e 19 23
e 19 28
e 19 33
e 19 45
e 20 40
e 20 42
e 21 23
e 21 49
e 22 28
e 22 38
e 22 46
e 23 28
e 23 47
e 24 48
e 25 43
e 26 42
e 26 45
e 27 29
e 27 31
e 27 33
e 27 44
e 27 46
e 28 36
e 28 40
e 28 49
e 29 40
e 29 41
e 29 45
e 30 39
e 30 45
e 30 49
e 31 33
e 31 41
e 32 39
e 33 43
e 33 44
e 33 45
e 33 48
e 34 36
e 34 46
e 35 48
e 37 44
e 38 42
e 40 45
e 40 46
e 41 44
